#######################################
### Exact MIP solver for the HHCRSP ###
#######################################
-- Instance file: new-instances/HHCRSP_200_40_50_1.6_R_RC.txt
-- Max threads: 4
-- Time limit: 999999 seconds
-- Use initial solution: No
Trivial flow violations prevented generating 367538 variables.
Version identifier: 20.1.0.0 | 2020-11-10 | 9bedb6d68
CPXPARAM_Threads                                 4
CPXPARAM_TimeLimit                               999999
Parallel mode: deterministic, using up to 4 threads for concurrent optimization:
 * Starting dual Simplex on 1 thread...
 * Starting Barrier on 3 threads...
Tried aggregator 1 time.
LP Presolve eliminated 23640 rows and 6107 columns.
Reduced LP has 464144 rows, 440625 columns, and 8590856 nonzeros.
Presolve time = 19.89 sec. (1956.55 ticks)
Symmetry aggregator did 721352 additional substitutions.

Iteration log . . .
Iteration:     1   Dual objective     =             0.000000
Iteration:   926   Dual objective     =           256.166667

Dual crossover.
  Dual:  Fixing 1128 variables.
     1127 DMoves:  Infeasibility  9.20818990e-13  Objective  2.60000000e+02
        0 DMoves:  Infeasibility  6.22916547e-13  Objective  2.60000000e+02
  Dual:  Pushed 25, exchanged 1103.
  Primal:  Fixing 691 variables.
      690 PMoves:  Infeasibility  0.00000000e+00  Objective  2.60000000e+02
        0 PMoves:  Infeasibility  0.00000000e+00  Objective  2.60000000e+02
  Primal:  Pushed 605, exchanged 86.

Dual simplex solved model.


Solution status from MIP model:
-- Processing time: 30.584 sec.
-- Memory used: 453.173 MB
-- Best bound: inf
-- Obj value: 260
-- Gap: inf%
-- Total distance: 780
-- Total tardiness: 0
-- Largest tardiness: 0
